20	5
0	6	4	1	3	6	5	2
1	1	16
2	1	13
3	2	12	9
4	2	10	12
5	1	11
6	1	17
7	2	19	18
8	1	21
9	1	15
10	3	19	14	15
11	1	7
12	2	8	19
13	1	14
14	1	21
15	1	21
16	1	21
17	1	21
18	1	21
19	1	21
20	1	21
21	0
0	0	0	0	0	0	0
1	8	3	2	1	1	2
2	7	5	4	4	4	4
3	4	4	1	4	2	3
4	1	3	4	5	2	4
5	1	4	5	2	2	2
6	4	1	5	2	2	4
7	7	4	4	1	4	4
8	7	5	2	1	4	1
9	3	3	2	3	1	5
10	1	1	5	5	5	2
11	3	2	1	1	2	3
12	3	1	3	1	5	1
13	6	1	3	4	1	2
14	6	5	5	2	3	1
15	4	5	3	1	3	2
16	7	1	4	5	1	3
17	5	2	3	4	5	3
18	7	3	1	2	1	2
19	8	2	4	1	1	1
20	7	5	5	1	4	5
21	0	0	0	0	0	0
14	16	15	13	15
